171259
62,24,85,89,63,29,28,7,91,11,92,88,79,33,25,49,46,60,13,73,101,23,75,57,86,43,65,58,9,26,27,0,42,78,14,3,102,74,34,45,39,55,15,19,12,30,64,96,54,4,51,5,76,16,20,21,61,1,71,81,32,72,47,84,83,52,50,99,44,80,98,67,18,41,68,87,97,105,8,22,56,82,90,59,95,77,93,69,36,48,38,35,70,53,94,66,40,10,103,37,104,100,2,17,6,31,62